4755590520532570275508,13,1,2,012,13,1,2,03,2,1,2,06,10,1,2,08,11,1,2,06,4,1,2,09,12,1,2,011,7,1,2,05,14,1,2,015,11,1,2,06,11,1,2,02,11,1,2,04,11,1,2,010,12,1,2,010,15,1,2,06,10,1,2,010,4,1,2,06,11,1,2,02,14,1,2,013,12,1,2,015,8,1,2,05,2,1,2,012,6,1,2,011,10,1,2,05,3,1,2,03,12,1,2,04,7,1,2,04,10,1,2,06,3,1,2,01,4,1,2,05,15,1,2,09,4,1,2,04,11,1,2,04,7,1,2,011,1,1,2,06,6,1,2,011,7,1,2,013,1,1,2,01,7,1,2,04,7,1,2,05,6,1,2,08,12,1,2,07,9,1,2,07,4,1,2,01,10,1,2,09,3,1,2,012,1,1,2,012,10,1,2,015,11,1,2,013,6,1,2,0